C2  # Created by Pivotpy
  2.46803100000000    
    1.0000000000000000    0.0000000000000000    0.0000000000000000
   -0.4999997974093519    0.8660251836382931    0.0000000000000000
    0.0000000000000000    0.0000000000000000    8.1029342824300024
  C
  2
Selective Dynamics
Direct
   0.3333330000000000   0.6666670000000000   0.0000000000000000   T T T
   0.6666670000000000   0.3333330000000000   0.0000000000000000   F F F